outputs/case_83.model.txt
compliance_148_1_2 = True
internal_handling_established = True
report_or_explanation_false = False
explanation_doc_not_compliant = False
violate_148_3_2 = False
compliance_148_2_2 = True
compliance_148_3_2 = True
not_public_explanation = False
violate_148_1_2_flag = False
internal_handling_ok = True
not_report_to_authority_in_time = False
internal_control_executed = True
not_provide_explanation_doc = False
violate_148_2_2 = False
violate_148_2_1 = False
violate_148_1_2 = False
penalty = False
compliance_148_3_1 = True
internal_handling_executed = True
internal_control_established = True
violate_148_3_1 = False
internal_control_ok = True
compliance_148_2_1 = True
explanation_doc_false = False